
--- Job ReallocationNetwork.gms Start 09/19/21 11:15:59 36.1.0 r2c0a44a WEX-WEI x86 64bit/MS Windows
--- Applying:
    C:\GAMS\36\gmsprmNT.txt
    C:\Users\Erwin\Documents\GAMS\gamsconfig.yaml
--- GAMS Parameters defined
    Input D:\projects\OptimizationModels\Reallocation\ReallocationNetwork.gms
    PageWidth 120
    PageSize 0
    PageContr 3
    Action CE
    ScrDir D:\projects\OptimizationModels\Reallocation\225a\
    SysDir C:\GAMS\36\
    WorkDir D:\projects\OptimizationModels\Reallocation\
    LogOption 3
    DFormat 0
    TFormat 0
    ErrorLog 99
    IDE 1
Licensee: Eval License                                   S201210/0001CO-GEN
          Amsterdam Optimization Modeling Group,                     DCE378
          C:\Users\Erwin\Documents\GAMS\gamslice.txt
          Evaluation license: Not for commercial or production use
Processor information: 1 socket(s), 4 core(s), and 8 thread(s) available
GAMS 36.1.0   Copyright (C) 1987-2021 GAMS Development. All rights reserved
--- Starting compilation
--- ReallocationNetwork.gms(147) 3 Mb
--- Starting execution: elapsed 0:00:00.076
--- ReallocationNetwork.gms(133) 4 Mb
--- Generating LP model mincostflow
--- ReallocationNetwork.gms(137) 4 Mb
---   22 rows  69 columns  185 non-zeroes
--- Executing CPLEX (Solvelink=2): elapsed 0:00:00.115

IBM ILOG CPLEX   36.1.0 r2c0a44a Released Aug 02, 2021 WEI x86 64bit/MS Window

--- GAMS/Cplex Link licensed for continuous and discrete problems.
--- GMO setup time: 0.00s
--- GMO memory 0.51 Mb (peak 0.51 Mb)
--- Dictionary memory 0.00 Mb
--- Cplex 20.1.0.1 link memory 0.00 Mb (peak 0.01 Mb)
--- Starting Cplex

Version identifier: 20.1.0.1 | 2021-04-07 | 3a818710c
CPXPARAM_Advance                                 0
CPXPARAM_Simplex_Display                         2
CPXPARAM_Threads                                 1
CPXPARAM_MIP_Display                             4
CPXPARAM_MIP_Tolerances_AbsMIPGap                0
Tried aggregator 1 time.
LP Presolve eliminated 0 rows and 1 columns.
Reduced LP has 21 rows, 68 columns, and 136 nonzeros.
Presolve time = 0.00 sec. (0.04 ticks)
Initializing dual steep norms . . .

Iteration      Dual Objective            In Variable           Out Variable
     1              11.800000flow(catA,zone4,all,zonflow(all,zone4,all,sink
     2              11.800000flow(catA,zone4,all,zonflow(all,zone1,all,sink
     3              11.800000flow(catA,zone4,all,zonflow(all,zone2,all,sink
     4              11.800000flow(catC,zone4,all,zonflow(catA,zone4,all,zon
     5              12.400000flow(catA,zone1,all,zonflow(catA,zone4,all,zon

--- LP status (1): optimal.
--- Cplex Time: 0.06sec (det. 0.07 ticks)


Optimal solution found
Objective:           12.400000

--- Reading solution for model mincostflow
--- Executing after solve: elapsed 0:00:00.596
--- ReallocationNetwork.gms(146) 4 Mb
*** Status: Normal completion
--- Job ReallocationNetwork.gms Stop 09/19/21 11:16:00 elapsed 0:00:00.602
